% demand
num_movements = 36;
loading_factor = [1950, 1200, 1600, 1250, 950, 1400, 850, 1500, 1350, 1850, 1100, 1250, 1750, 800, 850, 1050, 850, 1300, 1400, 1750, 1250, 900, 1950, 900, 950, 1900, 1550, 1300, 1700, 1450, 850, 1550, 1800, 950, 1100, 1300];
pickup_time = [0, 0, 0, 0, 0, 0, 0, 0, 1, 1, 2, 3, 3, 3, 3, 3, 3, 3, 3, 5, 5, 5, 5, 5, 6, 6, 6, 6, 6, 7, 8, 8, 9, 9, 9, 9];
delivery_time = [1, 1, 1, 1, 1, 1, 1, 1, 3, 3, 3, 4, 7, 5, 5, 5, 4, 5, 6, 6, 6, 7, 6, 7, 8, 7, 10, 10, 8, 10, 9, 10, 10, 10, 10, 10];

% transporter definition
total_capacity = 11000;
num_decks = 4;
capacity = [3000, 3000, 1000, 4000];

% ways out of decks
num_ways_out = 2;
paths_out = array3d(decks, ways_out, decks, [
% ways out of deck d1
2, 4, 0, 0, 3, 4, 0, 0, 

% ways out of deck d2
4, 0, 0, 0, 0, 0, 0, 0,	

% ways out of deck d3
4, 0, 0, 0, 0, 0, 0, 0,	

% ways out of deck d4
0, 0, 0, 0,	0, 0, 0, 0,	

]);

